ilp_joint/output/carbon cycle_ilp.lp
Maximize
  0.00102934867918713 Z_357_0_0 + 0.0078540554647587 Z_357_0_1
   + 0.7141417238844311 Z_357_0_2 + 0.00811870530257652 Z_357_0_3
   + 0.1688561666690467 Z_357_0_4
Subject To
 constraint1_3570: Z_357_0_0 + Z_357_0_1 + Z_357_0_2 + Z_357_0_3
   + Z_357_0_4 <= 1
 constraint2_2190: <= 1
 constraint2_2191: <= 1
 constraint2_2192: <= 1
 constraint2_2193: <= 1
 constraint2_3570: Z_357_0_0 <= 1
 constraint2_3571: Z_357_0_1 <= 1
 constraint2_3572: Z_357_0_2 <= 1
 constraint2_3573: Z_357_0_3 <= 1
Bounds
Binaries
 Z_357_0_0 Z_357_0_1 Z_357_0_2 Z_357_0_3 Z_357_0_4
End
