ilp_joint/output/carbon cycle_ilp.sol
# Solution for model carbon cycle_srl_ilp
# Objective value = 7.1414172388443109e-01
Z_357_0_0 0
Z_357_0_1 0
Z_357_0_2 1
Z_357_0_3 0
Z_357_0_4 0
